c b=6,c=257
p cnf 20 26
6 -12 0
6 -20 0
-6 12 0
-6 20 0
5 -11 0
5 -19 0
-5 11 0
-5 19 0
4 -10 0
4 -18 0
-4 10 0
-4 18 0
3 -9 0
3 -17 0
-3 9 0
-3 17 0
2 -8 0
2 -16 0
-2 8 0
-2 16 0
1 -7 0
1 -15 0
-1 7 0
-1 15 0
-13 0
-14 0
